TSPLib/instances/tsp_45.tsp
NAME: tsp_45
TYPE: TSP
DIMENSION: 45
EDGE_WEIGHT_TYPE: EUC_2D
NODE_COORD_SECTION
1 38 67
2 50 333
3 78 231
4 68 18
5 21 268
6 31 305
7 86 77
8 54 268
9 85 83
10 93 113
11 94 206
12 97 146
13 38 114
14 25 147
15 45 245
16 51 276
17 30 333
18 20 103
19 51 106
20 93 10
21 49 373
22 23 261
23 80 38
24 81 95
25 100 291
26 4 70
27 5 365
28 0 33
29 76 303
30 31 110
31 32 141
32 71 79
33 37 92
34 4 177
35 20 173
36 41 376
37 24 319
38 83 44
39 92 278
40 82 187
41 84 292
42 60 387
43 31 105
44 16 218
45 35 223
EOF
